Input: tic-14crafd.fixed040-Forb.dzn
============================================================
Total Runtime: 0.4605 seconds
Input parsing: 0.0042 seconds
Constraint building: 0.2339 seconds
MaxSAT solving: 0.0559 seconds
============================================================

Total variables: 75045
Total clauses: 162171
MaxSAT found with cost: N/A
NO SOLUTION FOUND
